p edge 28 112
e 1 15
e 1 10
e 1 26
e 1 14
e 1 16
e 1 9
e 1 18
e 1 11
e 2 16
e 2 9
e 2 27
e 2 20
e 2 6
e 2 24
e 2 3
e 2 23
e 3 26
e 3 14
e 3 20
e 3 13
e 3 22
e 3 6
e 3 19
e 4 9
e 4 27
e 4 20
e 4 24
e 4 8
e 4 26
e 4 10
e 4 28
e 5 24
e 5 12
e 5 23
e 5 7
e 5 25
e 5 18
e 5 11
e 5 8
e 6 13
e 6 22
e 6 15
e 6 7
e 6 21
e 6 18
e 7 12
e 7 28
e 7 16
e 7 9
e 7 27
e 7 11
e 8 11
e 8 24
e 8 17
e 8 26
e 8 28
e 8 25
e 9 10
e 9 25
e 9 27
e 9 20
e 10 11
e 10 15
e 10 21
e 10 14
e 10 25
e 11 21
e 11 25
e 11 19
e 12 15
e 12 17
e 12 28
e 12 23
e 12 16
e 12 13
e 13 26
e 13 19
e 13 21
e 13 16
e 13 18
e 14 18
e 14 25
e 14 22
e 14 17
e 14 23
e 15 23
e 15 16
e 15 28
e 15 21
e 16 19
e 16 28
e 17 25
e 17 22
e 17 24
e 17 26
e 17 28
e 18 26
e 18 19
e 18 20
e 19 27
e 19 21
e 19 23
e 20 23
e 20 27
e 20 26
e 21 27
e 21 22
e 22 23
e 22 27
e 22 24
e 24 28
e 24 25
